18 20
9 5 1
2 4 1
6 10 1
7 5 1
3 6 1
7 10 1
5 1 1
5 3 1
9 6 1
4 2 1
7 6 1
2 7 1
3 8 3
10 4 1
5 4 1
3 10 1
8 7 1
7 8 1
30 30 
30 30 
30 30 
30 30 
30 30 
30 30 
30 30 
30 30 
30 30 
30 30 
30 30 
30 30 
30 30 
30 30 
30 30 
30 30 
30 30 
30 30 
30 30 
30 30 
